# Objective value = 1138
y[0,0] 0
y[0,1] 1
y[0,2] 0
y[0,3] 0
y[0,4] 0
y[1,0] 0
y[1,1] 0
y[1,2] 0
y[1,3] 0
y[1,4] 0
y[2,0] 0
y[2,1] 0
y[2,2] 0
y[2,3] 1
y[2,4] 0
y[3,0] 1
y[3,1] 0
y[3,2] 0
y[3,3] 0
y[3,4] 0
y[4,0] 1
y[4,1] 0
y[4,2] 0
y[4,3] 0
y[4,4] 0
y[5,0] 1
y[5,1] 0
y[5,2] 0
y[5,3] 0
y[5,4] 0
y[6,0] 1
y[6,1] 0
y[6,2] 0
y[6,3] 0
y[6,4] 0
y[7,0] 1
y[7,1] 0
y[7,2] 0
y[7,3] 0
y[7,4] 0
y[8,0] 1
y[8,1] 0
y[8,2] 0
y[8,3] 0
y[8,4] 0
y[9,0] 1
y[9,1] 0
y[9,2] 0
y[9,3] 0
y[9,4] 0
y[10,0] 1
y[10,1] 0
y[10,2] 0
y[10,3] 0
y[10,4] 0
y[11,0] 1
y[11,1] 0
y[11,2] 0
y[11,3] 0
y[11,4] 0
y[12,0] 1
y[12,1] 0
y[12,2] 0
y[12,3] 0
y[12,4] 0
y[13,0] 0
y[13,1] 0
y[13,2] 1
y[13,3] 0
y[13,4] 0
y[14,0] 1
y[14,1] 0
y[14,2] 0
y[14,3] 0
y[14,4] 0
y[15,0] 1
y[15,1] 0
y[15,2] 0
y[15,3] 0
y[15,4] 0
y[16,0] 1
y[16,1] 0
y[16,2] 0
y[16,3] 0
y[16,4] 0
y[17,0] 1
y[17,1] 0
y[17,2] 0
y[17,3] 0
y[17,4] 0
y[18,0] 1
y[18,1] 0
y[18,2] 0
y[18,3] 0
y[18,4] 0
y[19,0] 0
y[19,1] 0
y[19,2] 0
y[19,3] 0
y[19,4] 1
y_prime[0,0] 0
y_prime[0,1] 1
y_prime[0,2] 0
y_prime[0,3] 0
y_prime[0,4] 0
y_prime[1,0] 0
y_prime[1,1] 0
y_prime[1,2] 0
y_prime[1,3] 0
y_prime[1,4] 0
y_prime[2,0] 0
y_prime[2,1] 0
y_prime[2,2] 0
y_prime[2,3] 1
y_prime[2,4] 0
y_prime[3,0] 0
y_prime[3,1] 0
y_prime[3,2] 0
y_prime[3,3] 0
y_prime[3,4] 0
y_prime[4,0] 0
y_prime[4,1] 0
y_prime[4,2] 0
y_prime[4,3] 0
y_prime[4,4] 0
y_prime[5,0] 0
y_prime[5,1] 0
y_prime[5,2] 0
y_prime[5,3] 0
y_prime[5,4] 0
y_prime[6,0] 0
y_prime[6,1] 0
y_prime[6,2] 0
y_prime[6,3] 0
y_prime[6,4] 0
y_prime[7,0] 0
y_prime[7,1] 0
y_prime[7,2] 0
y_prime[7,3] 0
y_prime[7,4] 0
y_prime[8,0] 0
y_prime[8,1] 0
y_prime[8,2] 0
y_prime[8,3] 0
y_prime[8,4] 0
y_prime[9,0] 1
y_prime[9,1] 0
y_prime[9,2] 0
y_prime[9,3] 0
y_prime[9,4] 0
y_prime[10,0] 0
y_prime[10,1] 0
y_prime[10,2] 0
y_prime[10,3] 0
y_prime[10,4] 0
y_prime[11,0] 0
y_prime[11,1] 0
y_prime[11,2] 0
y_prime[11,3] 0
y_prime[11,4] 0
y_prime[12,0] 0
y_prime[12,1] 0
y_prime[12,2] 0
y_prime[12,3] 0
y_prime[12,4] 0
y_prime[13,0] 0
y_prime[13,1] 0
y_prime[13,2] 1
y_prime[13,3] 0
y_prime[13,4] 0
y_prime[14,0] 0
y_prime[14,1] 0
y_prime[14,2] 0
y_prime[14,3] 0
y_prime[14,4] 0
y_prime[15,0] 0
y_prime[15,1] 0
y_prime[15,2] 0
y_prime[15,3] 0
y_prime[15,4] 0
y_prime[16,0] 0
y_prime[16,1] 0
y_prime[16,2] 0
y_prime[16,3] 0
y_prime[16,4] 0
y_prime[17,0] 0
y_prime[17,1] 0
y_prime[17,2] 0
y_prime[17,3] 0
y_prime[17,4] 0
y_prime[18,0] 0
y_prime[18,1] 0
y_prime[18,2] 0
y_prime[18,3] 0
y_prime[18,4] 0
y_prime[19,0] 0
y_prime[19,1] 0
y_prime[19,2] 0
y_prime[19,3] 0
y_prime[19,4] 1
y_prime2[0,0] 0
y_prime2[0,1] 1
y_prime2[0,2] 0
y_prime2[0,3] 0
y_prime2[0,4] 0
y_prime2[1,0] 0
y_prime2[1,1] 0
y_prime2[1,2] 0
y_prime2[1,3] 0
y_prime2[1,4] 0
y_prime2[2,0] 0
y_prime2[2,1] 0
y_prime2[2,2] 0
y_prime2[2,3] 1
y_prime2[2,4] 0
y_prime2[3,0] 0
y_prime2[3,1] 0
y_prime2[3,2] 0
y_prime2[3,3] 0
y_prime2[3,4] 0
y_prime2[4,0] 0
y_prime2[4,1] 0
y_prime2[4,2] 0
y_prime2[4,3] 0
y_prime2[4,4] 0
y_prime2[5,0] 0
y_prime2[5,1] 0
y_prime2[5,2] 0
y_prime2[5,3] 0
y_prime2[5,4] 0
y_prime2[6,0] 0
y_prime2[6,1] 0
y_prime2[6,2] 0
y_prime2[6,3] 0
y_prime2[6,4] 0
y_prime2[7,0] 0
y_prime2[7,1] 0
y_prime2[7,2] 0
y_prime2[7,3] 0
y_prime2[7,4] 0
y_prime2[8,0] 0
y_prime2[8,1] 0
y_prime2[8,2] 0
y_prime2[8,3] 0
y_prime2[8,4] 0
y_prime2[9,0] 1
y_prime2[9,1] 0
y_prime2[9,2] 0
y_prime2[9,3] 0
y_prime2[9,4] 0
y_prime2[10,0] 0
y_prime2[10,1] 0
y_prime2[10,2] 0
y_prime2[10,3] 0
y_prime2[10,4] 0
y_prime2[11,0] 0
y_prime2[11,1] 0
y_prime2[11,2] 0
y_prime2[11,3] 0
y_prime2[11,4] 0
y_prime2[12,0] 0
y_prime2[12,1] 0
y_prime2[12,2] 0
y_prime2[12,3] 0
y_prime2[12,4] 0
y_prime2[13,0] 0
y_prime2[13,1] 0
y_prime2[13,2] 1
y_prime2[13,3] 0
y_prime2[13,4] 0
y_prime2[14,0] 0
y_prime2[14,1] 0
y_prime2[14,2] 0
y_prime2[14,3] 0
y_prime2[14,4] 0
y_prime2[15,0] 0
y_prime2[15,1] 0
y_prime2[15,2] 0
y_prime2[15,3] 0
y_prime2[15,4] 0
y_prime2[16,0] 0
y_prime2[16,1] 0
y_prime2[16,2] 0
y_prime2[16,3] 0
y_prime2[16,4] 0
y_prime2[17,0] 0
y_prime2[17,1] 0
y_prime2[17,2] 0
y_prime2[17,3] 0
y_prime2[17,4] 0
y_prime2[18,0] 0
y_prime2[18,1] 0
y_prime2[18,2] 0
y_prime2[18,3] 0
y_prime2[18,4] 0
y_prime2[19,0] 0
y_prime2[19,1] 0
y_prime2[19,2] 0
y_prime2[19,3] 0
y_prime2[19,4] 1
z[0,0] 0
z[0,1] 0
z[0,2] 0
z[0,3] 0
z[0,4] 0
z[0,5] 0
z[0,6] 0
z[0,7] 0
z[0,8] 0
z[0,9] 0
z[0,10] 0
z[0,11] 0
z[0,12] 0
z[0,13] 0
z[0,14] 0
z[0,15] 0
z[0,16] 0
z[0,17] 0
z[0,18] 0
z[0,19] 0
z[1,0] 0
z[1,1] 0
z[1,2] 0
z[1,3] 0
z[1,4] 0
z[1,5] 0
z[1,6] 0
z[1,7] 0
z[1,8] 0
z[1,9] 0
z[1,10] 0
z[1,11] 0
z[1,12] 0
z[1,13] 0
z[1,14] 0
z[1,15] 0
z[1,16] 0
z[1,17] 0
z[1,18] 0
z[1,19] 0
z[2,0] 0
z[2,1] 0
z[2,2] 0
z[2,3] 0
z[2,4] 0
z[2,5] 0
z[2,6] 0
z[2,7] 0
z[2,8] 0
z[2,9] 0
z[2,10] 0
z[2,11] 0
z[2,12] 0
z[2,13] 0
z[2,14] 0
z[2,15] 0
z[2,16] 0
z[2,17] 0
z[2,18] 0
z[2,19] 0
z[3,0] 0
z[3,1] 0
z[3,2] 0
z[3,3] 0
z[3,4] 0
z[3,5] 0
z[3,6] 0
z[3,7] 0
z[3,8] 0
z[3,9] 0
z[3,10] 0
z[3,11] 0
z[3,12] 0
z[3,13] 0
z[3,14] 0
z[3,15] 0
z[3,16] 0
z[3,17] 0
z[3,18] 0
z[3,19] 0
z[4,0] 0
z[4,1] 0
z[4,2] 0
z[4,3] 0
z[4,4] 0
z[4,5] 0
z[4,6] 0
z[4,7] 0
z[4,8] 0
z[4,9] 0
z[4,10] 1
z[4,11] 0
z[4,12] 0
z[4,13] 0
z[4,14] 0
z[4,15] 0
z[4,16] 0
z[4,17] 0
z[4,18] 0
z[4,19] 0
z[5,0] 0
z[5,1] 0
z[5,2] 0
z[5,3] 0
z[5,4] 0
z[5,5] 0
z[5,6] 0
z[5,7] 0
z[5,8] 1
z[5,9] 0
z[5,10] 0
z[5,11] 0
z[5,12] 0
z[5,13] 0
z[5,14] 0
z[5,15] 0
z[5,16] 0
z[5,17] 0
z[5,18] 1
z[5,19] 0
z[6,0] 0
z[6,1] 0
z[6,2] 0
z[6,3] 0
z[6,4] 0
z[6,5] 0
z[6,6] 0
z[6,7] 0
z[6,8] 0
z[6,9] 0
z[6,10] 0
z[6,11] 0
z[6,12] 0
z[6,13] 0
z[6,14] 0
z[6,15] 0
z[6,16] 0
z[6,17] 1
z[6,18] 0
z[6,19] 0
z[7,0] 0
z[7,1] 0
z[7,2] 0
z[7,3] 0
z[7,4] 0
z[7,5] 0
z[7,6] 0
z[7,7] 0
z[7,8] 0
z[7,9] 0
z[7,10] 0
z[7,11] 0
z[7,12] 0
z[7,13] 0
z[7,14] 0
z[7,15] 0
z[7,16] 0
z[7,17] 0
z[7,18] 0
z[7,19] 0
z[8,0] 0
z[8,1] 0
z[8,2] 0
z[8,3] 0
z[8,4] 0
z[8,5] 0
z[8,6] 1
z[8,7] 0
z[8,8] 0
z[8,9] 0
z[8,10] 0
z[8,11] 0
z[8,12] 0
z[8,13] 0
z[8,14] 0
z[8,15] 0
z[8,16] 1
z[8,17] 0
z[8,18] 0
z[8,19] 0
z[9,0] 0
z[9,1] 0
z[9,2] 0
z[9,3] 0
z[9,4] 0
z[9,5] 0
z[9,6] 0
z[9,7] 0
z[9,8] 0
z[9,9] 0
z[9,10] 0
z[9,11] 0
z[9,12] 0
z[9,13] 0
z[9,14] 0
z[9,15] 0
z[9,16] 0
z[9,17] 0
z[9,18] 0
z[9,19] 0
z[10,0] 0
z[10,1] 0
z[10,2] 0
z[10,3] 0
z[10,4] 0
z[10,5] 0
z[10,6] 0
z[10,7] 0
z[10,8] 0
z[10,9] 0
z[10,10] 0
z[10,11] 0
z[10,12] 0
z[10,13] 0
z[10,14] 1
z[10,15] 0
z[10,16] 0
z[10,17] 0
z[10,18] 0
z[10,19] 0
z[11,0] 0
z[11,1] 0
z[11,2] 0
z[11,3] 0
z[11,4] 0
z[11,5] 1
z[11,6] 0
z[11,7] 1
z[11,8] 0
z[11,9] 0
z[11,10] 0
z[11,11] 0
z[11,12] 0
z[11,13] 0
z[11,14] 0
z[11,15] 0
z[11,16] 0
z[11,17] 0
z[11,18] 0
z[11,19] 0
z[12,0] 0
z[12,1] 0
z[12,2] 0
z[12,3] 0
z[12,4] 0
z[12,5] 0
z[12,6] 0
z[12,7] 0
z[12,8] 0
z[12,9] 0
z[12,10] 0
z[12,11] 0
z[12,12] 0
z[12,13] 0
z[12,14] 0
z[12,15] 0
z[12,16] 0
z[12,17] 0
z[12,18] 0
z[12,19] 0
z[13,0] 0
z[13,1] 0
z[13,2] 0
z[13,3] 0
z[13,4] 0
z[13,5] 0
z[13,6] 0
z[13,7] 0
z[13,8] 0
z[13,9] 0
z[13,10] 0
z[13,11] 0
z[13,12] 0
z[13,13] 0
z[13,14] 0
z[13,15] 0
z[13,16] 0
z[13,17] 0
z[13,18] 0
z[13,19] 0
z[14,0] 0
z[14,1] 0
z[14,2] 0
z[14,3] 1
z[14,4] 0
z[14,5] 0
z[14,6] 0
z[14,7] 0
z[14,8] 0
z[14,9] 0
z[14,10] 0
z[14,11] 0
z[14,12] 0
z[14,13] 0
z[14,14] 0
z[14,15] 0
z[14,16] 0
z[14,17] 0
z[14,18] 0
z[14,19] 0
z[15,0] 0
z[15,1] 0
z[15,2] 0
z[15,3] 0
z[15,4] 0
z[15,5] 0
z[15,6] 0
z[15,7] 0
z[15,8] 0
z[15,9] 0
z[15,10] 0
z[15,11] 0
z[15,12] 0
z[15,13] 0
z[15,14] 0
z[15,15] 0
z[15,16] 0
z[15,17] 0
z[15,18] 0
z[15,19] 0
z[16,0] 0
z[16,1] 0
z[16,2] 0
z[16,3] 0
z[16,4] 0
z[16,5] 0
z[16,6] 0
z[16,7] 0
z[16,8] 0
z[16,9] 0
z[16,10] 0
z[16,11] 0
z[16,12] 0
z[16,13] 0
z[16,14] 0
z[16,15] 1
z[16,16] 0
z[16,17] 0
z[16,18] 0
z[16,19] 0
z[17,0] 0
z[17,1] 0
z[17,2] 0
z[17,3] 0
z[17,4] 1
z[17,5] 0
z[17,6] 0
z[17,7] 0
z[17,8] 0
z[17,9] 0
z[17,10] 0
z[17,11] 1
z[17,12] 1
z[17,13] 0
z[17,14] 0
z[17,15] 0
z[17,16] 0
z[17,17] 0
z[17,18] 0
z[17,19] 0
z[18,0] 0
z[18,1] 0
z[18,2] 0
z[18,3] 0
z[18,4] 0
z[18,5] 0
z[18,6] 0
z[18,7] 0
z[18,8] 0
z[18,9] 0
z[18,10] 0
z[18,11] 0
z[18,12] 0
z[18,13] 0
z[18,14] 0
z[18,15] 0
z[18,16] 0
z[18,17] 0
z[18,18] 0
z[18,19] 0
z[19,0] 0
z[19,1] 0
z[19,2] 0
z[19,3] 0
z[19,4] 0
z[19,5] 0
z[19,6] 0
z[19,7] 0
z[19,8] 0
z[19,9] 0
z[19,10] 0
z[19,11] 0
z[19,12] 0
z[19,13] 0
z[19,14] 0
z[19,15] 0
z[19,16] 0
z[19,17] 0
z[19,18] 0
z[19,19] 0
x[0] 1
x[1] 0
x[2] 1
x[3] 1
x[4] 1
x[5] 1
x[6] 1
x[7] 1
x[8] 1
x[9] 1
x[10] 1
x[11] 1
x[12] 1
x[13] 1
x[14] 1
x[15] 1
x[16] 1
x[17] 1
x[18] 1
x[19] 1
o[0] 0
o[1] 1
o[2] 1
o[3] 1
o[4] 1
o[5] 1
o[6] 1
o[7] 1
o[8] 1
o[9] 1
